solution status: optimal solution found
objective value:                                   29
x69                                                 1 	(obj:1)
x71                                                 1 	(obj:1)
x77                                                 1 	(obj:1)
x84                                                 1 	(obj:1)
x88                                                 1 	(obj:1)
x92                                                 1 	(obj:1)
x94                                                 1 	(obj:1)
x95                                                 1 	(obj:1)
x96                                                 1 	(obj:1)
x97                                                 1 	(obj:1)
x99                                                 1 	(obj:1)
x110                                                1 	(obj:1)
x113                                                1 	(obj:1)
x120                                                1 	(obj:1)
x121                                                1 	(obj:1)
x123                                                1 	(obj:1)
x124                                                1 	(obj:1)
x129                                                1 	(obj:1)
x130                                                1 	(obj:1)
x131                                                1 	(obj:1)
x134                                                1 	(obj:1)
x139                                                1 	(obj:1)
x141                                                1 	(obj:1)
x146                                                1 	(obj:1)
x147                                                1 	(obj:1)
x150                                                1 	(obj:1)
x158                                                1 	(obj:1)
x159                                                1 	(obj:1)
x160                                                1 	(obj:1)
thingy.thingy.chamber[2].first.voutlet_y                   23 	(obj:0)
thingy.thingy.chamber[2].first.voutlet_z                   15 	(obj:0)
thingy.pump_pinholes[0].hole_y                     18 	(obj:0)
thingy.pump_pinholes[0].hole_z                     18 	(obj:0)
thingy.thingy.chamber[0].first.voutlet_y                   22 	(obj:0)
thingy.thingy.chamber[0].first.voutlet_z                   16 	(obj:0)
thingy.thingy.chamber[0].first.vpump3.valves[0].vinlet_y                   21 	(obj:0)
thingy.thingy.chamber[0].first.vpump3.valves[0].vinlet_z                   18 	(obj:0)
thingy.thingy.chamber[2].first.vpump3.valves[0].vinlet_y                   21 	(obj:0)
thingy.thingy.chamber[2].first.vpump3.valves[0].vinlet_z                   17 	(obj:0)
thingy.thingy.chamber[0].first.vring_out_y                   22 	(obj:0)
thingy.thingy.chamber[0].first.vring_out_z                   22 	(obj:0)
thingy.ctrl_prep_inlet_hole_y                      16 	(obj:0)
thingy.ctrl_prep_inlet_hole_z                      18 	(obj:0)
thingy.flush_pump_pinholes[1].hole_y                   18 	(obj:0)
thingy.flush_pump_pinholes[1].hole_z                   13 	(obj:0)
thingy.thingy.chamber[1].first.vpump3.valves[0].vinlet_y                   22 	(obj:0)
thingy.thingy.chamber[1].first.vpump3.valves[0].vinlet_z                   18 	(obj:0)
thingy.thingy.chamber[3].first.voutlet_y                   21 	(obj:0)
thingy.thingy.chamber[3].first.voutlet_z                   14 	(obj:0)
thingy.thingy.chamber[0].first.ring_y                   19 	(obj:0)
thingy.thingy.chamber[0].first.ring_z                   19 	(obj:0)
thingy.thingy.chamber[3].first.vpump3.valves[0].vinlet_y                   22 	(obj:0)
thingy.thingy.chamber[3].first.vpump3.valves[0].vinlet_z                   17 	(obj:0)
thingy.flush_pump_pinholes[0].hole_y                   16 	(obj:0)
thingy.flush_pump_pinholes[0].hole_z                   14 	(obj:0)
thingy.thingy.chamber[2].first.vring_out_y                   20 	(obj:0)
thingy.thingy.chamber[2].first.vring_out_z                   20 	(obj:0)
thingy.thingy.chamber[3].first.vring_out_y                   17 	(obj:0)
thingy.thingy.chamber[3].first.vring_out_z                   16 	(obj:0)
thingy.thingy.chamber[1].first.voutlet_y                   23 	(obj:0)
thingy.thingy.chamber[1].first.voutlet_z                   16 	(obj:0)
thingy.thingy.prep.v1_y                            20 	(obj:0)
thingy.thingy.prep.v1_z                            21 	(obj:0)
thingy.thingy.chamber[3].first.ring_y                   19 	(obj:0)
thingy.thingy.chamber[3].first.ring_z                   18 	(obj:0)
thingy.pump_pinholes[1].hole_y                     18 	(obj:0)
thingy.pump_pinholes[1].hole_z                     16 	(obj:0)
thingy.thingy.chamber[1].first.vring_out_y                   20 	(obj:0)
thingy.thingy.chamber[1].first.vring_out_z                   22 	(obj:0)
thingy.thingy.prep.vout1_y                         17 	(obj:0)
thingy.thingy.prep.vout1_z                         22 	(obj:0)
thingy.flush_prep_inlet_hole_y                     17 	(obj:0)
thingy.flush_prep_inlet_hole_z                     18 	(obj:0)
thingy.thingy.prep.v2_y                            18 	(obj:0)
thingy.thingy.prep.v2_z                            20 	(obj:0)
thingy.thingy.chamber[2].first.ring_y                   23 	(obj:0)
thingy.thingy.chamber[2].first.ring_z                   18 	(obj:0)
thingy.thingy.chamber[1].first.ring_y                   22 	(obj:0)
thingy.thingy.chamber[1].first.ring_z                   19 	(obj:0)
